400 1584 
1 5 1
1 6 1
1 7 1
1 8 1
1 9 1
1 13 1
1 14 1
1 15 1
1 16 1
1 18 1
1 19 1
1 20 1
1 38 1
1 43 1
1 45 1
1 46 1
1 49 1
1 52 1
1 60 1
1 62 1
1 66 1
1 70 1
1 73 1
1 78 1
1 79 1
1 80 1
1 87 1
1 93 1
1 104 1
1 108 1
1 110 1
1 112 1
1 114 1
1 115 1
1 118 1
1 121 1
1 131 1
1 134 1
1 140 1
1 142 1
1 143 1
1 144 1
1 149 1
1 177 1
1 178 1
1 196 1
1 197 1
1 200 1
1 215 1
1 231 1
1 246 1
1 253 1
1 256 1
1 274 1
1 275 1
1 280 1
1 290 1
1 294 1
1 298 1
1 306 1
1 355 1
1 373 1
1 379 1
1 386 1
2 5 1
2 6 1
2 8 1
2 9 1
2 10 1
2 12 1
2 13 1
2 16 1
2 20 1
2 24 1
2 26 1
2 27 1
2 29 1
2 30 1
2 32 1
2 36 1
2 37 1
2 52 1
2 53 1
2 66 1
2 69 1
2 76 1
2 86 1
2 92 1
2 113 1
2 130 1
2 132 1
2 145 1
2 167 1
2 168 1
2 170 1
2 173 1
2 185 1
2 186 1
2 211 1
2 213 1
2 224 1
2 246 1
2 257 1
2 259 1
2 261 1
2 282 1
2 287 1
2 288 1
2 301 1
2 325 1
2 337 1
2 342 1
2 343 1
2 345 1
2 358 1
2 384 1
3 5 1
3 6 1
3 7 1
3 8 1
3 12 1
3 14 1
3 15 1
3 18 1
3 19 1
3 21 1
3 22 1
3 23 1
3 25 1
3 26 1
3 29 1
3 31 1
3 45 1
3 48 1
3 55 1
3 71 1
3 100 1
3 103 1
3 115 1
3 123 1
3 126 1
3 142 1
3 152 1
3 156 1
3 161 1
3 165 1
3 203 1
3 208 1
3 210 1
3 251 1
3 285 1
3 294 1
3 368 1
3 371 1
3 383 1
3 393 1
3 398 1
4 5 1
4 7 1
4 11 1
4 24 1
4 38 1
4 40 1
4 46 1
4 60 1
4 61 1
4 67 1
4 71 1
4 99 1
4 108 1
4 111 1
4 127 1
4 129 1
4 153 1
4 156 1
4 157 1
4 160 1
4 176 1
4 210 1
4 214 1
4 215 1
4 233 1
4 241 1
4 255 1
4 264 1
4 291 1
4 311 1
4 366 1
4 399 1
5 6 1
5 7 1
5 34 1
5 61 1
5 79 1
5 94 1
5 121 1
5 157 1
5 187 1
5 193 1
5 217 1
5 221 1
5 331 1
5 349 1
6 8 1
6 9 1
6 10 1
6 11 1
6 14 1
6 16 1
6 17 1
6 21 1
6 22 1
6 26 1
6 28 1
6 29 1
6 41 1
6 42 1
6 44 1
6 49 1
6 54 1
6 59 1
6 67 1
6 81 1
6 82 1
6 85 1
6 120 1
6 123 1
6 137 1
6 175 1
6 207 1
6 211 1
6 213 1
6 219 1
6 224 1
6 233 1
6 237 1
6 242 1
6 248 1
6 259 1
6 284 1
6 302 1
6 322 1
6 331 1
6 371 1
6 377 1
7 9 1
7 10 1
7 20 1
7 24 1
7 34 1
7 39 1
7 59 1
7 65 1
7 77 1
7 83 1
7 87 1
7 122 1
7 135 1
7 155 1
7 159 1
7 168 1
7 173 1
7 180 1
7 195 1
7 206 1
7 210 1
7 226 1
7 228 1
7 252 1
7 258 1
7 260 1
7 268 1
7 308 1
7 368 1
7 400 1
8 11 1
8 13 1
8 26 1
8 28 1
8 33 1
8 36 1
8 44 1
8 63 1
8 84 1
8 95 1
8 101 1
8 115 1
8 183 1
8 195 1
8 244 1
8 260 1
8 264 1
8 272 1
8 378 1
9 10 1
9 11 1
9 12 1
9 19 1
9 23 1
9 24 1
9 30 1
9 62 1
9 64 1
9 89 1
9 93 1
9 119 1
9 121 1
9 125 1
9 157 1
9 171 1
9 174 1
9 179 1
9 194 1
9 213 1
9 226 1
9 244 1
9 250 1
9 260 1
9 266 1
9 271 1
9 280 1
9 306 1
9 334 1
9 337 1
9 383 1
10 13 1
10 15 1
10 16 1
10 18 1
10 22 1
10 29 1
10 31 1
10 34 1
10 36 1
10 39 1
10 42 1
10 48 1
10 51 1
10 81 1
10 100 1
10 101 1
10 106 1
10 112 1
10 125 1
10 143 1
10 149 1
10 174 1
10 204 1
10 214 1
10 263 1
10 277 1
10 305 1
10 327 1
10 356 1
10 368 1
10 376 1
10 387 1
10 394 1
11 12 1
11 31 1
11 40 1
11 41 1
11 49 1
11 55 1
11 60 1
11 66 1
11 109 1
11 135 1
11 186 1
11 205 1
11 213 1
11 218 1
11 269 1
11 303 1
11 318 1
11 319 1
11 323 1
12 21 1
12 30 1
12 39 1
12 48 1
12 62 1
12 75 1
12 109 1
12 123 1
12 172 1
12 238 1
12 274 1
12 296 1
12 300 1
12 319 1
12 323 1
12 400 1
13 14 1
13 15 1
13 17 1
13 18 1
13 21 1
13 22 1
13 27 1
13 28 1
13 30 1
13 32 1
13 35 1
13 45 1
13 56 1
13 57 1
13 61 1
13 70 1
13 72 1
13 77 1
13 80 1
13 84 1
13 95 1
13 104 1
13 113 1
13 120 1
13 122 1
13 124 1
13 128 1
13 134 1
13 137 1
13 140 1
13 155 1
13 163 1
13 170 1
13 179 1
13 188 1
13 191 1
13 199 1
13 209 1
13 233 1
13 235 1
13 238 1
13 241 1
13 254 1
13 286 1
13 298 1
13 310 1
13 312 1
13 320 1
13 327 1
13 331 1
13 337 1
13 342 1
13 357 1
13 369 1
13 385 1
13 399 1
14 17 1
14 25 1
14 44 1
14 50 1
14 67 1
14 72 1
14 97 1
14 251 1
14 252 1
14 254 1
14 390 1
15 19 1
15 56 1
15 82 1
15 86 1
15 124 1
15 128 1
15 135 1
15 152 1
15 160 1
15 198 1
15 220 1
15 285 1
15 329 1
15 334 1
15 348 1
15 354 1
16 17 1
16 23 1
16 25 1
16 27 1
16 31 1
16 37 1
16 54 1
16 63 1
16 71 1
16 79 1
16 85 1
16 98 1
16 174 1
16 219 1
16 229 1
16 235 1
16 296 1
16 316 1
16 341 1
16 370 1
17 46 1
17 85 1
17 98 1
17 107 1
17 109 1
17 165 1
17 182 1
17 190 1
17 360 1
17 363 1
17 393 1
18 32 1
18 33 1
18 37 1
18 83 1
18 101 1
18 200 1
18 309 1
18 334 1
18 384 1
19 20 1
19 25 1
19 27 1
19 35 1
19 38 1
19 47 1
19 53 1
19 65 1
19 89 1
19 152 1
19 187 1
19 299 1
19 314 1
20 23 1
20 35 1
20 47 1
20 49 1
20 53 1
20 56 1
20 77 1
20 80 1
20 88 1
20 100 1
20 104 1
20 108 1
20 131 1
20 147 1
20 159 1
20 161 1
20 184 1
20 191 1
20 240 1
20 287 1
20 340 1
20 342 1
20 349 1
21 37 1
21 57 1
21 62 1
21 88 1
21 103 1
21 121 1
21 154 1
21 162 1
21 252 1
21 278 1
21 321 1
21 373 1
21 382 1
22 33 1
22 34 1
22 42 1
22 43 1
22 51 1
22 58 1
22 90 1
22 95 1
22 96 1
22 111 1
22 139 1
22 166 1
22 194 1
22 202 1
22 204 1
22 223 1
22 230 1
22 271 1
22 315 1
22 346 1
22 391 1
22 398 1
23 32 1
23 33 1
23 47 1
23 55 1
23 167 1
23 189 1
23 247 1
23 297 1
23 359 1
24 28 1
24 76 1
24 90 1
24 91 1
24 116 1
24 118 1
24 130 1
24 131 1
24 133 1
24 136 1
24 187 1
24 198 1
24 206 1
24 215 1
24 286 1
24 309 1
25 42 1
25 50 1
25 51 1
25 75 1
25 86 1
25 92 1
25 117 1
25 135 1
25 186 1
25 194 1
25 242 1
25 273 1
25 293 1
26 36 1
26 40 1
26 81 1
26 97 1
26 99 1
26 107 1
26 124 1
26 145 1
26 158 1
26 170 1
26 191 1
26 199 1
26 305 1
27 35 1
27 57 1
27 66 1
27 74 1
27 77 1
27 84 1
27 90 1
27 94 1
27 95 1
27 118 1
27 141 1
27 166 1
27 186 1
27 212 1
27 262 1
27 270 1
27 299 1
27 338 1
27 378 1
28 115 1
28 158 1
28 180 1
28 223 1
28 283 1
28 301 1
28 317 1
28 322 1
28 339 1
28 351 1
29 40 1
29 41 1
29 51 1
29 58 1
29 85 1
29 128 1
29 188 1
29 227 1
29 237 1
29 249 1
29 261 1
29 310 1
29 338 1
29 360 1
29 396 1
30 38 1
30 44 1
30 52 1
30 53 1
30 59 1
30 72 1
30 74 1
30 102 1
30 112 1
30 138 1
30 159 1
30 165 1
30 190 1
30 245 1
30 289 1
30 331 1
31 70 1
31 107 1
31 127 1
31 144 1
31 167 1
31 209 1
31 225 1
31 244 1
31 254 1
31 310 1
31 318 1
31 319 1
32 64 1
32 83 1
32 235 1
32 372 1
33 79 1
33 130 1
33 240 1
33 242 1
33 246 1
33 263 1
33 374 1
34 39 1
34 65 1
34 76 1
34 81 1
34 89 1
34 93 1
34 174 1
34 179 1
34 243 1
35 41 1
35 54 1
35 69 1
35 75 1
35 78 1
35 96 1
35 183 1
35 216 1
35 222 1
35 277 1
35 375 1
36 60 1
36 97 1
36 120 1
36 144 1
36 149 1
36 162 1
36 241 1
36 283 1
36 305 1
36 308 1
36 321 1
36 343 1
36 365 1
36 368 1
37 48 1
37 56 1
37 64 1
37 68 1
37 69 1
37 74 1
37 83 1
37 88 1
37 93 1
37 94 1
37 110 1
37 118 1
37 141 1
37 171 1
37 236 1
37 336 1
38 52 1
38 78 1
38 90 1
38 154 1
38 196 1
38 204 1
38 227 1
38 276 1
38 295 1
38 298 1
38 312 1
38 326 1
38 329 1
38 333 1
38 367 1
39 57 1
39 82 1
39 176 1
39 194 1
39 275 1
39 293 1
39 304 1
40 46 1
40 177 1
40 350 1
41 43 1
41 47 1
41 119 1
41 133 1
41 148 1
41 150 1
41 344 1
42 43 1
42 67 1
42 172 1
42 202 1
42 245 1
42 290 1
42 292 1
43 45 1
43 50 1
43 61 1
43 116 1
43 168 1
43 221 1
43 225 1
43 302 1
43 364 1
44 55 1
44 59 1
44 92 1
44 142 1
44 148 1
44 160 1
44 181 1
44 185 1
44 188 1
44 195 1
44 232 1
44 239 1
44 241 1
44 251 1
44 303 1
44 312 1
44 328 1
44 353 1
44 362 1
44 378 1
44 395 1
45 65 1
45 71 1
45 72 1
45 120 1
45 138 1
45 161 1
45 326 1
45 347 1
46 181 1
46 279 1
46 340 1
46 382 1
47 50 1
47 58 1
47 98 1
47 139 1
47 145 1
47 153 1
47 180 1
47 292 1
47 339 1
48 54 1
48 58 1
48 181 1
48 228 1
48 239 1
48 266 1
48 278 1
48 285 1
48 289 1
48 333 1
48 386 1
49 73 1
49 75 1
49 80 1
49 89 1
49 111 1
49 117 1
49 134 1
49 137 1
49 207 1
49 210 1
49 226 1
49 271 1
49 277 1
49 294 1
49 317 1
49 383 1
49 387 1
50 63 1
50 164 1
51 68 1
51 103 1
51 106 1
51 110 1
51 159 1
51 224 1
51 271 1
51 344 1
52 92 1
52 110 1
52 131 1
52 146 1
52 164 1
52 169 1
52 196 1
52 225 1
52 247 1
52 252 1
52 259 1
52 264 1
52 279 1
52 329 1
52 352 1
52 382 1
52 384 1
53 68 1
53 82 1
53 96 1
53 106 1
53 126 1
53 129 1
53 136 1
53 146 1
53 185 1
53 216 1
53 227 1
53 296 1
53 332 1
53 333 1
53 376 1
53 382 1
54 86 1
54 101 1
54 140 1
54 362 1
54 391 1
55 70 1
55 87 1
55 91 1
55 147 1
55 263 1
55 269 1
55 364 1
56 63 1
56 155 1
56 197 1
56 270 1
56 276 1
56 323 1
56 354 1
56 356 1
57 94 1
57 99 1
57 103 1
57 141 1
57 380 1
58 374 1
59 74 1
59 76 1
59 129 1
59 139 1
59 143 1
59 150 1
59 155 1
59 190 1
59 219 1
59 337 1
59 347 1
60 102 1
60 255 1
60 276 1
60 284 1
60 295 1
60 378 1
61 87 1
61 108 1
61 146 1
61 177 1
61 191 1
61 230 1
61 299 1
61 309 1
62 73 1
62 91 1
62 105 1
62 109 1
62 114 1
62 171 1
62 172 1
62 196 1
62 258 1
62 282 1
62 311 1
63 64 1
63 68 1
63 139 1
63 151 1
63 222 1
63 255 1
63 281 1
63 363 1
63 377 1
64 84 1
64 102 1
65 125 1
65 181 1
65 289 1
66 102 1
66 130 1
66 148 1
66 152 1
66 166 1
66 218 1
66 275 1
66 326 1
66 328 1
66 349 1
66 356 1
66 379 1
66 396 1
67 91 1
67 190 1
67 201 1
67 211 1
67 214 1
67 253 1
67 262 1
67 293 1
67 318 1
67 379 1
68 69 1
68 88 1
68 156 1
68 185 1
68 202 1
68 243 1
68 256 1
69 282 1
69 330 1
70 73 1
70 78 1
70 127 1
70 146 1
70 208 1
71 338 1
73 201 1
73 256 1
73 282 1
74 119 1
74 132 1
74 141 1
74 176 1
74 203 1
74 232 1
74 297 1
74 329 1
74 375 1
75 171 1
75 183 1
75 184 1
75 268 1
75 280 1
75 342 1
75 388 1
76 204 1
76 297 1
76 397 1
77 157 1
77 292 1
78 334 1
78 365 1
79 107 1
79 136 1
79 215 1
79 251 1
79 332 1
80 104 1
80 106 1
80 182 1
82 122 1
82 147 1
82 154 1
82 158 1
82 343 1
82 389 1
83 97 1
83 113 1
83 119 1
83 125 1
83 156 1
83 176 1
84 134 1
84 168 1
84 338 1
85 255 1
85 304 1
86 116 1
86 145 1
86 148 1
86 153 1
86 319 1
87 117 1
87 163 1
87 231 1
87 250 1
87 302 1
87 304 1
87 330 1
88 99 1
89 116 1
89 117 1
89 127 1
89 193 1
89 200 1
89 201 1
89 236 1
89 250 1
89 296 1
89 353 1
89 357 1
90 100 1
90 114 1
90 367 1
91 96 1
91 105 1
91 114 1
91 126 1
91 151 1
91 162 1
91 183 1
91 214 1
91 218 1
91 285 1
91 322 1
91 373 1
91 376 1
92 142 1
92 150 1
92 188 1
92 232 1
92 361 1
93 281 1
93 386 1
94 178 1
94 257 1
95 113 1
95 360 1
96 112 1
96 153 1
96 179 1
96 239 1
96 257 1
96 279 1
96 327 1
96 335 1
97 98 1
97 217 1
97 222 1
97 341 1
97 369 1
98 122 1
99 111 1
99 129 1
99 192 1
99 236 1
99 286 1
99 315 1
99 325 1
99 358 1
99 370 1
99 380 1
100 178 1
100 379 1
101 105 1
101 124 1
101 299 1
101 332 1
102 105 1
102 138 1
102 280 1
102 357 1
103 133 1
103 247 1
103 248 1
104 182 1
104 197 1
106 189 1
106 234 1
106 253 1
106 328 1
106 364 1
106 385 1
107 177 1
107 245 1
108 126 1
108 154 1
108 161 1
108 175 1
108 237 1
108 243 1
108 263 1
108 281 1
108 350 1
108 381 1
108 392 1
110 199 1
111 128 1
111 189 1
111 322 1
111 324 1
111 375 1
112 147 1
112 193 1
112 234 1
112 310 1
113 162 1
113 173 1
113 203 1
113 231 1
113 258 1
113 273 1
113 348 1
113 377 1
114 221 1
114 229 1
114 284 1
114 359 1
114 364 1
114 374 1
114 398 1
115 205 1
115 300 1
116 136 1
116 260 1
117 132 1
117 341 1
118 211 1
118 389 1
119 132 1
119 274 1
119 388 1
120 187 1
120 218 1
120 267 1
120 315 1
120 372 1
121 123 1
121 170 1
121 249 1
122 389 1
123 138 1
123 217 1
123 369 1
124 172 1
124 344 1
125 140 1
125 149 1
125 209 1
125 313 1
125 363 1
126 166 1
126 197 1
126 209 1
126 396 1
126 399 1
127 242 1
128 274 1
129 143 1
129 235 1
130 133 1
130 169 1
130 173 1
130 208 1
130 321 1
130 351 1
130 366 1
130 375 1
131 192 1
131 245 1
131 269 1
131 308 1
131 313 1
132 229 1
132 243 1
132 388 1
133 144 1
134 137 1
134 151 1
134 202 1
135 230 1
135 324 1
136 175 1
136 220 1
136 324 1
137 164 1
137 198 1
137 317 1
137 318 1
138 192 1
138 261 1
138 339 1
138 359 1
139 184 1
139 207 1
141 365 1
142 150 1
142 217 1
142 244 1
142 248 1
142 267 1
142 277 1
142 330 1
142 387 1
142 395 1
143 219 1
144 165 1
144 169 1
144 216 1
144 372 1
145 232 1
145 294 1
146 199 1
146 208 1
146 220 1
146 257 1
146 288 1
147 151 1
147 193 1
147 226 1
147 392 1
147 397 1
148 327 1
149 163 1
149 167 1
149 212 1
149 313 1
149 350 1
150 238 1
150 302 1
150 344 1
150 361 1
150 397 1
153 164 1
153 233 1
153 307 1
153 320 1
153 350 1
154 180 1
154 238 1
154 262 1
154 288 1
155 250 1
155 355 1
156 160 1
156 220 1
156 229 1
156 306 1
156 372 1
157 158 1
157 163 1
157 175 1
157 265 1
157 291 1
157 320 1
157 391 1
158 184 1
158 212 1
161 192 1
161 205 1
161 267 1
161 288 1
161 317 1
161 332 1
161 361 1
161 371 1
162 203 1
162 230 1
162 289 1
163 240 1
163 287 1
163 326 1
163 351 1
164 281 1
164 295 1
164 348 1
165 169 1
165 236 1
166 178 1
166 237 1
166 248 1
166 286 1
166 352 1
167 256 1
167 270 1
168 366 1
168 381 1
170 283 1
171 353 1
172 198 1
172 390 1
174 201 1
174 207 1
175 182 1
175 258 1
175 272 1
176 359 1
177 189 1
177 357 1
178 291 1
178 307 1
179 316 1
179 336 1
179 381 1
181 200 1
181 224 1
181 272 1
181 367 1
182 206 1
182 228 1
182 246 1
182 361 1
182 385 1
183 355 1
184 239 1
185 384 1
186 205 1
187 290 1
188 398 1
189 195 1
189 206 1
189 291 1
192 253 1
193 234 1
194 223 1
194 311 1
194 341 1
195 216 1
195 313 1
196 358 1
196 390 1
197 293 1
198 265 1
198 266 1
199 212 1
199 254 1
202 227 1
202 298 1
203 370 1
203 400 1
204 354 1
204 355 1
204 389 1
206 228 1
206 275 1
206 283 1
208 273 1
208 309 1
208 323 1
208 330 1
209 267 1
210 221 1
210 316 1
210 345 1
211 222 1
211 223 1
211 268 1
211 300 1
211 314 1
211 333 1
211 347 1
213 234 1
213 345 1
213 349 1
215 249 1
215 273 1
215 300 1
216 360 1
220 225 1
220 264 1
222 272 1
222 314 1
223 276 1
223 301 1
224 363 1
224 380 1
224 394 1
226 266 1
227 231 1
227 366 1
228 304 1
228 346 1
228 383 1
228 393 1
229 240 1
229 325 1
230 392 1
231 346 1
233 265 1
233 287 1
234 249 1
234 352 1
235 262 1
236 396 1
238 279 1
238 284 1
238 297 1
239 247 1
241 335 1
242 307 1
243 270 1
247 259 1
249 335 1
251 261 1
251 325 1
252 290 1
253 295 1
254 324 1
255 315 1
257 278 1
257 308 1
258 268 1
258 320 1
261 278 1
261 312 1
261 346 1
262 311 1
263 265 1
263 336 1
267 292 1
268 269 1
272 307 1
275 301 1
276 303 1
276 369 1
280 387 1
283 303 1
286 316 1
287 385 1
288 306 1
288 373 1
289 376 1
290 305 1
295 321 1
297 335 1
298 348 1
299 314 1
300 377 1
301 391 1
303 381 1
308 390 1
312 340 1
312 395 1
313 352 1
313 374 1
314 394 1
315 351 1
315 358 1
316 345 1
317 353 1
320 336 1
320 339 1
321 397 1
323 399 1
324 328 1
327 356 1
328 340 1
328 343 1
328 365 1
331 367 1
331 394 1
332 354 1
339 400 1
341 347 1
341 362 1
352 371 1
356 362 1
359 380 1
363 392 1
365 370 1
375 395 1
379 386 1
380 388 1
389 393 1
